s SATISFIABLE
s SATISFIABLE
s UNSATISFIABLE
s UNSATISFIABLE
s UNSATISFIABLE
s UNSATISFIABLE
s UNSATISFIABLE
s UNSATISFIABLE
s UNSATISFIABLE
s UNSATISFIABLE
s SATISFIABLE
s SATISFIABLE
s SATISFIABLE
s SATISFIABLE
s UNSATISFIABLE
s UNSATISFIABLE
s UNSATISFIABLE
s UNSATISFIABLE
s UNSATISFIABLE
s SATISFIABLE
